sets/C/cp-n15-k1.tsp
NAME : cp-n15-k1
COMMENT : (Claudio Procida)
TYPE : TSP
DIMENSION : 15
EDGE_WEIGHT_TYPE : EUC_2D
NODE_COORD_SECTION
1 50 50
2	12  3
3	0  4
4	76 6
5	87 6
6	90	0
7	85	10
8	3 42
9	19	25
10 10	 12
11 0  35
12	90	40
13 84 100
14 67 102
15 75 96
EOF
