sets/C/cp-n15-k1.opt
Route #1: 7 10 8 9 2 1 3 5 4 6 11 12 14 13
cost 373
